p tw 50 134
e 0 5
e 0 25
e 0 29
e 0 45
e 1 2
e 1 14
e 1 16
e 1 25
e 1 42
e 1 48
e 2 31
e 2 33
e 2 34
e 2 41
e 3 11
e 3 20
e 3 36
e 3 41
e 3 47
e 3 48
e 4 7
e 4 10
e 4 16
e 4 22
e 4 23
e 4 25
e 5 16
e 5 17
e 5 23
e 5 38
e 6 16
e 6 18
e 6 22
e 6 27
e 6 29
e 6 30
e 6 31
e 6 33
e 7 33
e 7 35
e 7 39
e 8 15
e 8 25
e 8 49
e 9 11
e 9 14
e 9 27
e 9 32
e 9 37
e 10 13
e 10 17
e 10 22
e 10 23
e 10 27
e 10 34
e 10 45
e 11 33
e 11 39
e 12 15
e 12 16
e 12 30
e 12 34
e 12 35
e 14 16
e 14 29
e 14 49
e 15 17
e 15 18
e 15 19
e 15 28
e 15 48
e 16 18
e 16 19
e 16 24
e 16 32
e 16 37
e 17 26
e 17 46
e 17 47
e 18 19
e 18 24
e 18 35
e 18 44
e 18 46
e 19 25
e 19 42
e 20 27
e 20 37
e 20 43
e 20 46
e 20 47
e 21 27
e 21 43
e 22 42
e 22 45
e 22 47
e 22 48
e 23 35
e 23 36
e 23 45
e 24 32
e 24 35
e 24 38
e 25 34
e 25 40
e 25 48
e 27 33
e 27 38
e 27 42
e 27 47
e 27 49
e 28 31
e 28 32
e 28 34
e 29 30
e 29 47
e 29 49
e 30 36
e 30 42
e 30 43
e 32 35
e 32 38
e 33 38
e 34 38
e 35 41
e 39 40
e 39 49
e 40 48
e 41 43
e 42 49
e 43 45
e 44 46
e 45 49
e 47 48
